language ESSENCE' 1.0
$ Minion SolverNodes: 7
$ Minion SolverTotalTime: 0.050795
$ Minion SolverTimeOut: 0
$ Savile Row TotalTime: 0.338
letting cells be [[1, 1], 
[1, 2], 
[1, 3], 
[2, 3], 
[3, 3], 
[3, 2], 
[3, 1], 
[2, 1]]
